SystemName          Tubo 10,0 pristine isolado
SystemLabel         tubo_10-0_c
NumberOfAtoms       210
NumberOfSpecies     2
%block ChemicalSpeciesLabel
 1   6   C_gga
 2   1   H_gga
%endblock ChemicalSpeciesLabel

LatticeConstant  1.0 Ang
%block LatticeVectors
       25.000000    0.000000    0.000000
        0.000000   25.000000    0.000000
        0.000000    0.000000   21.485489
%endblock LatticeVectors

%block kgrid_Monkhorst_Pack
1   0   0   0.0
0   1   0   0.0
0   0   3   0.0
%endblock kgrid_Monkhorst_Pack

AtomicCoordinatesFormat NotScaledCartesianAng
AtomCoorFormatOut   NotScaledCartesianAng
%block AtomicCoordinatesAndAtomicSpecies
   3.7175328732000001        1.2078996897000001       -7.0898612469265068                1
   3.1623222827999999        2.2975616455000001       -7.7988475293265065                1
   3.1623222827999999        2.2975616455000001       -9.2168197363265065                1
   2.2975616455000001        3.1623222827999999       -9.9258058398965066                1
   2.2975616455000001        3.1623222827999999       -7.0898612469265068                1
   1.2078996897000001        3.7175328732000001       -7.7988475293265065                1
   1.2078996897000001        3.7175328732000001       -9.2168197363265065                1
  -6.4593753175976808E-016   3.9088454247000000       -9.9258058398965066                1
  -6.4593753175976808E-016   3.9088454247000000       -7.0898612469265068                1
  -1.2078996897000001        3.7175328732000001       -7.7988475293265065                1
  -1.2078996897000001        3.7175328732000001       -9.2168197363265065                1
  -2.2975616455000001        3.1623222827999999       -9.9258058398965066                1
  -2.2975616455000001        3.1623222827999999       -7.0898612469265068                1
  -3.1623222827999999        2.2975616455000001       -7.7988475293265065                1
  -3.1623222827999999        2.2975616455000001       -9.2168197363265065                1
  -3.7175328732000001        1.2078996897000001       -9.9258058398965066                1
  -3.7175328732000001        1.2078996897000001       -7.0898612469265068                1
  -3.9088454247000000       -1.2554458705240232E-015  -7.7988475293265065                1
  -3.9088454247000000        4.8043020553597681E-016  -9.2168197363265065                1
  -3.7175328732000001       -1.2078996897000001       -9.9258058398965066                1
  -3.7175328732000001       -1.2078996897000001       -7.0898612469265068                1
  -3.1623222827999999       -2.2975616455000001       -7.7988475293265065                1
  -3.1623222827999999       -2.2975616455000001       -9.2168197363265065                1
  -2.2975616455000001       -3.1623222827999999       -9.9258058398965066                1
  -2.2975616455000001       -3.1623222827999999       -7.0898612469265068                1
  -1.2078996897000001       -3.7175328732000001       -7.7988475293265065                1
  -1.2078996897000001       -3.7175328732000001       -9.2168197363265065                1
   2.7363617472402319E-015  -3.9088454247000000       -9.9258058398965066                1
   2.7363617472402319E-015  -3.9088454247000000       -7.0898612469265068                1
   1.2078996897000001       -3.7175328732000001       -7.7988475293265065                1
   1.2078996897000001       -3.7175328732000001       -9.2168197363265065                1
   2.2975616455000001       -3.1623222827999999       -9.9258058398965066                1
   2.2975616455000001       -3.1623222827999999       -7.0898612469265068                1
   3.1623222827999999       -2.2975616455000001       -7.7988475293265065                1
   3.1623222827999999       -2.2975616455000001       -9.2168197363265065                1
   3.7175328732000001       -1.2078996897000001       -9.9258058398965066                1
   3.7175328732000001       -1.2078996897000001       -7.0898612469265068                1
   3.9088454247000000       -9.5565624065402320E-016  -7.7988475293265065                1
   3.9088454247000000       -9.5565624065402320E-016  -9.2168197363265065                1
   3.7175328732000001        1.2078996897000001       -9.9258058398965066                1
   3.7175328732000001        1.2078996897000001       -2.8359447449265067                1
   3.1623222827999999        2.2975616455000001       -3.5449305504265070                1
   3.1623222827999999        2.2975616455000001       -4.9629031151265064                1
   2.2975616455000001        3.1623222827999999       -5.6718889206265066                1
   2.2975616455000001        3.1623222827999999       -2.8359447449265067                1
   1.2078996897000001        3.7175328732000001       -3.5449305504265070                1
   1.2078996897000001        3.7175328732000001       -4.9629031151265064                1
  -6.4593753175976808E-016   3.9088454247000000       -5.6718889206265066                1
  -6.4593753175976808E-016   3.9088454247000000       -2.8359447449265067                1
  -1.2078996897000001        3.7175328732000001       -3.5449305504265070                1
  -1.2078996897000001        3.7175328732000001       -4.9629031151265064                1
  -2.2975616455000001        3.1623222827999999       -5.6718889206265066                1
  -2.2975616455000001        3.1623222827999999       -2.8359447449265067                1
  -3.1623222827999999        2.2975616455000001       -3.5449305504265070                1
  -3.1623222827999999        2.2975616455000001       -4.9629031151265064                1
  -3.7175328732000001        1.2078996897000001       -5.6718889206265066                1
  -3.7175328732000001        1.2078996897000001       -2.8359447449265067                1
  -3.9088454247000000       -1.2554458705240232E-015  -3.5449305504265070                1
  -3.9088454247000000        4.8043020553597681E-016  -4.9629031151265064                1
  -3.7175328732000001       -1.2078996897000001       -5.6718889206265066                1
  -3.7175328732000001       -1.2078996897000001       -2.8359447449265067                1
  -3.1623222827999999       -2.2975616455000001       -3.5449305504265070                1
  -3.1623222827999999       -2.2975616455000001       -4.9629031151265064                1
  -2.2975616455000001       -3.1623222827999999       -5.6718889206265066                1
  -2.2975616455000001       -3.1623222827999999       -2.8359447449265067                1
  -1.2078996897000001       -3.7175328732000001       -3.5449305504265070                1
  -1.2078996897000001       -3.7175328732000001       -4.9629031151265064                1
   2.7363617472402319E-015  -3.9088454247000000       -5.6718889206265066                1
   2.7363617472402319E-015  -3.9088454247000000       -2.8359447449265067                1
   1.2078996897000001       -3.7175328732000001       -3.5449305504265070                1
   1.2078996897000001       -3.7175328732000001       -4.9629031151265064                1
   2.2975616455000001       -3.1623222827999999       -5.6718889206265066                1
   2.2975616455000001       -3.1623222827999999       -2.8359447449265067                1
   3.1623222827999999       -2.2975616455000001       -3.5449305504265070                1
   3.1623222827999999       -2.2975616455000001       -4.9629031151265064                1
   3.7175328732000001       -1.2078996897000001       -5.6718889206265066                1
   3.7175328732000001       -1.2078996897000001       -2.8359447449265067                1
   3.9088454247000000       -9.5565624065402320E-016  -3.5449305504265070                1
   3.9088454247000000       -9.5565624065402320E-016  -4.9629031151265064                1
   3.7175328732000001        1.2078996897000001       -5.6718889206265066                1
   3.7175328732000001        1.2078996897000001        1.4179719955734935                1
   3.1623222827999999        2.2975616455000001       0.70898571357349383                1
   3.1623222827999999        2.2975616455000001      -0.70898589792650668                1
   2.2975616455000001        3.1623222827999999       -1.4179721802265064                1
   2.2975616455000001        3.1623222827999999        1.4179719955734935                1
   1.2078996897000001        3.7175328732000001       0.70898571357349383                1
   1.2078996897000001        3.7175328732000001      -0.70898589792650668                1
  -6.4593753175976808E-016   3.9088454247000000       -1.4179721802265064                1
  -6.4593753175976808E-016   3.9088454247000000        1.4179719955734935                1
  -1.2078996897000001        3.7175328732000001       0.70898571357349383                1
  -1.2078996897000001        3.7175328732000001      -0.70898589792650668                1
  -2.2975616455000001        3.1623222827999999       -1.4179721802265064                1
  -2.2975616455000001        3.1623222827999999        1.4179719955734935                1
  -3.1623222827999999        2.2975616455000001       0.70898571357349383                1
  -3.1623222827999999        2.2975616455000001      -0.70898589792650668                1
  -3.7175328732000001        1.2078996897000001       -1.4179721802265064                1
  -3.7175328732000001        1.2078996897000001        1.4179719955734935                1
  -3.9088454247000000       -1.2554458705240232E-015  0.70898571357349383                1
  -3.9088454247000000        4.8043020553597681E-016 -0.70898589792650668                1
  -3.7175328732000001       -1.2078996897000001       -1.4179721802265064                1
  -3.7175328732000001       -1.2078996897000001        1.4179719955734935                1
  -3.1623222827999999       -2.2975616455000001       0.70898571357349383                1
  -3.1623222827999999       -2.2975616455000001      -0.70898589792650668                1
  -2.2975616455000001       -3.1623222827999999       -1.4179721802265064                1
  -2.2975616455000001       -3.1623222827999999        1.4179719955734935                1
  -1.2078996897000001       -3.7175328732000001       0.70898571357349383                1
  -1.2078996897000001       -3.7175328732000001      -0.70898589792650668                1
   2.7363617472402319E-015  -3.9088454247000000       -1.4179721802265064                1
   2.7363617472402319E-015  -3.9088454247000000        1.4179719955734935                1
   1.2078996897000001       -3.7175328732000001       0.70898571357349383                1
   1.2078996897000001       -3.7175328732000001      -0.70898589792650668                1
   2.2975616455000001       -3.1623222827999999       -1.4179721802265064                1
   2.2975616455000001       -3.1623222827999999        1.4179719955734935                1
   3.1623222827999999       -2.2975616455000001       0.70898571357349383                1
   3.1623222827999999       -2.2975616455000001      -0.70898589792650668                1
   3.7175328732000001       -1.2078996897000001       -1.4179721802265064                1
   3.7175328732000001       -1.2078996897000001        1.4179719955734935                1
   3.9088454247000000       -9.5565624065402320E-016  0.70898571357349383                1
   3.9088454247000000       -9.5565624065402320E-016 -0.70898589792650668                1
   3.7175328732000001        1.2078996897000001       -1.4179721802265064                1
   3.7175328732000001        1.2078996897000001        5.6718887355734928                1
   3.1623222827999999        2.2975616455000001        4.9629024535734931                1
   3.1623222827999999        2.2975616455000001        3.5449308425734927                1
   2.2975616455000001        3.1623222827999999        2.8359445605734930                1
   2.2975616455000001        3.1623222827999999        5.6718887355734928                1
   1.2078996897000001        3.7175328732000001        4.9629024535734931                1
   1.2078996897000001        3.7175328732000001        3.5449308425734927                1
  -6.4593753175976808E-016   3.9088454247000000        2.8359445605734930                1
  -6.4593753175976808E-016   3.9088454247000000        5.6718887355734928                1
  -1.2078996897000001        3.7175328732000001        4.9629024535734931                1
  -1.2078996897000001        3.7175328732000001        3.5449308425734927                1
  -2.2975616455000001        3.1623222827999999        2.8359445605734930                1
  -2.2975616455000001        3.1623222827999999        5.6718887355734928                1
  -3.1623222827999999        2.2975616455000001        4.9629024535734931                1
  -3.1623222827999999        2.2975616455000001        3.5449308425734927                1
  -3.7175328732000001        1.2078996897000001        2.8359445605734930                1
  -3.7175328732000001        1.2078996897000001        5.6718887355734928                1
  -3.9088454247000000       -1.2554458705240232E-015   4.9629024535734931                1
  -3.9088454247000000        4.8043020553597681E-016   3.5449308425734927                1
  -3.7175328732000001       -1.2078996897000001        2.8359445605734930                1
  -3.7175328732000001       -1.2078996897000001        5.6718887355734928                1
  -3.1623222827999999       -2.2975616455000001        4.9629024535734931                1
  -3.1623222827999999       -2.2975616455000001        3.5449308425734927                1
  -2.2975616455000001       -3.1623222827999999        2.8359445605734930                1
  -2.2975616455000001       -3.1623222827999999        5.6718887355734928                1
  -1.2078996897000001       -3.7175328732000001        4.9629024535734931                1
  -1.2078996897000001       -3.7175328732000001        3.5449308425734927                1
   2.7363617472402319E-015  -3.9088454247000000        2.8359445605734930                1
   2.7363617472402319E-015  -3.9088454247000000        5.6718887355734928                1
   1.2078996897000001       -3.7175328732000001        4.9629024535734931                1
   1.2078996897000001       -3.7175328732000001        3.5449308425734927                1
   2.2975616455000001       -3.1623222827999999        2.8359445605734930                1
   2.2975616455000001       -3.1623222827999999        5.6718887355734928                1
   3.1623222827999999       -2.2975616455000001        4.9629024535734931                1
   3.1623222827999999       -2.2975616455000001        3.5449308425734927                1
   3.7175328732000001       -1.2078996897000001        2.8359445605734930                1
   3.7175328732000001       -1.2078996897000001        5.6718887355734928                1
   3.9088454247000000       -9.5565624065402320E-016   4.9629024535734931                1
   3.9088454247000000       -9.5565624065402320E-016   3.5449308425734927                1
   3.7175328732000001        1.2078996897000001        2.8359445605734930                1
   3.7175328732000001        1.2078996897000001        9.9258064295734947                1
   3.1623222827999999        2.2975616455000001        9.2168201475734932                1
   3.1623222827999999        2.2975616455000001        7.7988475825734938                1
   2.2975616455000001        3.1623222827999999        7.0898613005734923                1
   2.2975616455000001        3.1623222827999999        9.9258064295734947                1
   1.2078996897000001        3.7175328732000001        9.2168201475734932                1
   1.2078996897000001        3.7175328732000001        7.7988475825734938                1
  -6.4593753175976808E-016   3.9088454247000000        7.0898613005734923                1
  -6.4593753175976808E-016   3.9088454247000000        9.9258064295734947                1
  -1.2078996897000001        3.7175328732000001        9.2168201475734932                1
  -1.2078996897000001        3.7175328732000001        7.7988475825734938                1
  -2.2975616455000001        3.1623222827999999        7.0898613005734923                1
  -2.2975616455000001        3.1623222827999999        9.9258064295734947                1
  -3.1623222827999999        2.2975616455000001        9.2168201475734932                1
  -3.1623222827999999        2.2975616455000001        7.7988475825734938                1
  -3.7175328732000001        1.2078996897000001        7.0898613005734923                1
  -3.7175328732000001        1.2078996897000001        9.9258064295734947                1
  -3.9088454247000000       -1.2554458705240232E-015   9.2168201475734932                1
  -3.9088454247000000        4.8043020553597681E-016   7.7988475825734938                1
  -3.7175328732000001       -1.2078996897000001        7.0898613005734923                1
  -3.7175328732000001       -1.2078996897000001        9.9258064295734947                1
  -3.1623222827999999       -2.2975616455000001        9.2168201475734932                1
  -3.1623222827999999       -2.2975616455000001        7.7988475825734938                1
  -2.2975616455000001       -3.1623222827999999        7.0898613005734923                1
  -2.2975616455000001       -3.1623222827999999        9.9258064295734947                1
  -1.2078996897000001       -3.7175328732000001        9.2168201475734932                1
  -1.2078996897000001       -3.7175328732000001        7.7988475825734938                1
   2.7363617472402319E-015  -3.9088454247000000        7.0898613005734923                1
   2.7363617472402319E-015  -3.9088454247000000        9.9258064295734947                1
   1.2078996897000001       -3.7175328732000001        9.2168201475734932                1
   1.2078996897000001       -3.7175328732000001        7.7988475825734938                1
   2.2975616455000001       -3.1623222827999999        7.0898613005734923                1
   2.2975616455000001       -3.1623222827999999        9.9258064295734947                1
   3.1623222827999999       -2.2975616455000001        9.2168201475734932                1
   3.1623222827999999       -2.2975616455000001        7.7988475825734938                1
   3.7175328732000001       -1.2078996897000001        7.0898613005734923                1
   3.7175328732000001       -1.2078996897000001        9.9258064295734947                1
   3.9088454247000000       -9.5565624065402320E-016   9.2168201475734932                1
   3.9088454247000000       -9.5565624065402320E-016   7.7988475825734938                1
   3.7175328732000001        1.2078996897000001        7.0898613005734923                1
   0.00000000       0.00000000      -4.9699998497962952                2
   0.00000000       0.00000000      -3.6599999070167542                1
   0.00000000       0.00000000      -2.2399999499320984                1
   0.00000000       0.00000000     -0.81999999284744263                1
   0.00000000       0.00000000      0.59999996423721313                1
   0.00000000       0.00000000       2.0199999213218689                1
   0.00000000       0.00000000       3.4399998784065247                1
   0.00000000       0.00000000       4.8599998354911804                1
   0.00000000       0.00000000       6.2799997925758362                1
   0.00000000       0.00000000       4.9699998497962952                2
%endblock AtomicCoordinatesAndAtomicSpecies


PAO.BasisType      split
PAO.BasisSize      DZP
WriteCoorXmol      .true.
WriteMDXmol        .true. 
MD.UseSaveXV       .true.
WarningMinimumAtomicDistance  0.7 Ang
WriteKpoints       .true.
XC.functional      GGA
XC.authors         PBE
SpinPolarized      .false.
NonCollinearSpin   .false.
MaxSCFIterations   100
SCFMustConverge    .false.
DM.MixingWeight    0.15
DM.NumberPulay     5
DM.UseSaveDM       .true.
DM.InitSpinAF      .false.


WriteDM            .true.
WriteDM.NetCDF     .false.
WriteDMHS.NetCDF   .true.
DM.Tolerance       0.0001
MeshCutoff         200 Ry
NeglNonOverlapInt  .false.
SaveHS             .true.
SolutionMethod     diagon

MD.TypeOfRun        CG
MD.MaxForceTol      0.01 eV/Ang
MD.MaxStressTol     0.1 GPa
MD.NumCGsteps       800
MD.TargetPressure   0.0 GPa
MD.VariableCell	    true
Diag.DivideAndConquer    .true.
%block GeometryConstraints
stress 1 2 4 5 6
%endblock GeometryConstraints
%block MD.TargetStress
-1.0 -1.0 -1.0 0.0 0.0 0.0
%endblock MD.TargetStress


BandLinesScale     ReciprocalLatticeVectors
%block BandLines
1  0.000 0.000 0.000
100 0.000 0.000 0.500
%endblock BandLines

%block ProjectedDensityOfStates
-10.00 5.00 0.08 200 eV
%endblock ProjectedDensityOfStates

WriteMullikenPop    1





 








   
 




 



