SystemName          Tubo 11,0 pristine isolado
SystemLabel         tubo_11-0
NumberOfAtoms       220
NumberOfSpecies     1
%block ChemicalSpeciesLabel
 1   6   C_gga
%endblock ChemicalSpeciesLabel

LatticeConstant  1.0 Ang
%block LatticeVectors
       25.000000    0.000000    0.000000
        0.000000   25.000000    0.000000
        0.000000    0.000000   21.485489
%endblock LatticeVectors

%block kgrid_Monkhorst_Pack
1   0   0   0.0
0   1   0   0.0
0   0   3   0.0
%endblock kgrid_Monkhorst_Pack

AtomicCoordinatesFormat NotScaledCartesianAng
AtomCoorFormatOut   NotScaledCartesianAng
%block AtomicCoordinatesAndAtomicSpecies
    3.84684657    1.22329487    3.64236854   1       1  C1_gga
    3.44974280    2.39743541    2.92020372   1       2  C1_gga
    3.46895137    2.39578135    1.48876469   1       3  C1_gga
    2.76780853    3.42034786    0.76695330   1       4  C1_gga
    2.75285076    3.43265918    3.63464029   1       5  C1_gga
    1.79286484    4.21821799    2.91064685   1       6  C1_gga
    1.79540799    4.20251730    1.48261095   1       7  C1_gga
    0.62459782    4.62403997    0.76388673   1       8  C1_gga
    0.62557175    4.66480964    3.62544822   1       9  C1_gga
   -0.62212057    4.65743651    2.90711103   1      10  C1_gga
   -0.62222530    4.63607362    1.48068454   1      11  C1_gga
   -1.79602559    4.21133348    0.76549826   1      12  C1_gga
   -1.79444728    4.24146325    3.62810236   1      13  C1_gga
   -2.76257681    3.45090088    2.91482360   1      14  C1_gga
   -2.77255828    3.44287658    1.48567711   1      15  C1_gga
   -3.49112460    2.42284151    0.76910524   1      16  C1_gga
   -3.45415338    2.42295265    3.63801291   1      17  C1_gga
   -3.87736268    1.25143329    2.92241476   1      18  C1_gga
   -3.90660811    1.25234721    1.49061449   1      19  C1_gga
   -4.05741456    0.01730894    0.77078313   1      20  C1_gga
   -3.99372020    0.01624517    3.64300625   1      21  C1_gga
   -3.86859885   -1.21778347    2.92262595   1      22  C1_gga
   -3.89924524   -1.21783887    1.49038296   1      23  C1_gga
   -3.48202551   -2.38757581    0.76884237   1      24  C1_gga
   -3.44175642   -2.38805698    3.63840197   1      25  C1_gga
   -2.75735335   -3.41895538    2.91415457   1      26  C1_gga
   -2.76881500   -3.41157714    1.48455598   1      27  C1_gga
   -1.80097510   -4.18971108    0.76319560   1      28  C1_gga
   -1.79604846   -4.21642744    3.62781600   1      29  C1_gga
   -0.63123715   -4.64532562    2.90451544   1      30  C1_gga
   -0.63208232   -4.62643274    1.47827100   1      31  C1_gga
    0.61393261   -4.62839561    0.76091493   1      32  C1_gga
    0.61399698   -4.66661212    3.62408906   1      33  C1_gga
    1.78352710   -4.23045482    2.90828344   1      34  C1_gga
    1.78663743   -4.21559287    1.48076787   1      35  C1_gga
    2.76280225   -3.43778731    0.76622622   1      36  C1_gga
    2.74577669   -3.45133782    3.63325204   1      37  C1_gga
    3.44337831   -2.41655190    2.91972079   1      38  C1_gga
    3.46389296   -2.41419813    1.48869511   1      39  C1_gga
    3.89626404   -1.24561733    0.77073356   1      40  C1_gga
    3.84202275   -1.24438542    3.64211948   1      41  C1_gga
    3.99445542   -0.01047858    2.92425999   1      42  C1_gga
    4.02568899   -0.00974014    1.49176290   1      43  C1_gga
    3.89934920    1.22665403    0.77035190   1      44  C1_gga
    3.78254055    1.21659677    7.93620391   1      45  C1_gga
    3.39955936    2.39677153    7.21754562   1      46  C1_gga
    3.41502454    2.39812052    5.78819986   1      47  C1_gga
    2.74303154    3.43986672    5.06468804   1      48  C1_gga
    2.72406166    3.44320862    7.93270974   1      49  C1_gga
    1.78227428    4.25004742    7.20829362   1      50  C1_gga
    1.78825639    4.24586348    5.77855985   1      51  C1_gga
    0.62486947    4.68666577    5.05417774   1      52  C1_gga
    0.62167990    4.70508838    7.92754141   1      53  C1_gga
   -0.62283709    4.70833511    7.20359216   1      54  C1_gga
   -0.62366590    4.70045385    5.77397379   1      55  C1_gga
   -1.79290558    4.25950113    5.05696109   1      56  C1_gga
   -1.78801409    4.27662102    7.92796777   1      57  C1_gga
   -2.74125810    3.47326703    7.21082226   1      58  C1_gga
   -2.74914595    3.46827736    5.78111076   1      59  C1_gga
   -3.43622151    2.42668254    5.06790434   1      60  C1_gga
   -3.41037806    2.43051975    7.93330504   1      61  C1_gga
   -3.80512942    1.25034379    7.21862404   1      62  C1_gga
   -3.82529937    1.25010118    5.78939469   1      63  C1_gga
   -3.96350547    0.01520177    5.07348313   1      64  C1_gga
   -3.91908701    0.01551295    7.93621712   1      65  C1_gga
   -3.79623327   -1.22047635    7.21995872   1      66  C1_gga
   -3.81467553   -1.21867830    5.79056228   1      67  C1_gga
   -3.42116022   -2.39295085    5.06912219   1      68  C1_gga
   -3.40030710   -2.40075662    7.93433028   1      69  C1_gga
   -2.73737980   -3.45185846    7.21384245   1      70  C1_gga
   -2.74176916   -3.44008881    5.78309505   1      71  C1_gga
   -1.79354517   -4.23803191    5.05744506   1      72  C1_gga
   -1.79511673   -4.27308888    7.92977260   1      73  C1_gga
   -0.63333254   -4.72830051    7.20674016   1      74  C1_gga
   -0.63296651   -4.70341366    5.77475688   1      75  C1_gga
    0.61448203   -4.69507769    5.05289396   1      76  C1_gga
    0.61759177   -4.74238982    7.92834773   1      77  C1_gga
    1.78492948   -4.29402369    7.20898838   1      78  C1_gga
    1.78408609   -4.27394851    5.77791445   1      79  C1_gga
    2.73699193   -3.46460110    5.06307426   1      80  C1_gga
    2.73367685   -3.48797299    7.93128854   1      81  C1_gga
    3.40251670   -2.43492226    7.21647640   1      82  C1_gga
    3.41173535   -2.42637920    5.78677127   1      83  C1_gga
    3.81704819   -1.24810575    5.07240568   1      84  C1_gga
    3.78596895   -1.25430366    7.93524493   1      85  C1_gga
    3.91873115   -0.01791441    7.22013864   1      86  C1_gga
    3.93979490   -0.01435165    5.79112351   1      87  C1_gga
    3.82173296    1.22173756    5.07276463   1      88  C1_gga
    3.77697964    1.22112402   12.22342749   1      89  C1_gga
    3.38436069    2.40103107   11.50931662   1      90  C1_gga
    3.38172691    2.39737792   10.08100317   1      91  C1_gga
    2.71854539    3.44754788    9.36229329   1      92  C1_gga
    2.72271953    3.45351040   12.22868899   1      93  C1_gga
    1.78233956    4.27389507   11.51207709   1      94  C1_gga
    1.78148875    4.26916518   10.08152302   1      95  C1_gga
    0.62156467    4.72205975    9.35783569   1      96  C1_gga
    0.62226603    4.73277963   12.23486765   1      97  C1_gga
   -0.62751392    4.74640082   11.51291280   1      98  C1_gga
   -0.62625242    4.74128701   10.08086676   1      99  C1_gga
   -1.79002274    4.29163399    9.35830749   1     100  C1_gga
   -1.79608798    4.30275311   12.23295608   1     101  C1_gga
   -2.74300833    3.49397394   11.51044334   1     102  C1_gga
   -2.73946732    3.48880948   10.08057899   1     103  C1_gga
   -3.40340419    2.43532583    9.36253222   1     104  C1_gga
   -3.41141161    2.44158022   12.22563628   1     105  C1_gga
   -3.79175125    1.25904903   11.50754955   1     106  C1_gga
   -3.78699282    1.25483847   10.07964753   1     107  C1_gga
   -3.91003839    0.01829811    9.36404181   1     108  C1_gga
   -3.92138895    0.02366244   12.22245723   1     109  C1_gga
   -3.78533029   -1.21206662   11.50723300   1     110  C1_gga
   -3.77965036   -1.21650134   10.07961257   1     111  C1_gga
   -3.39341888   -2.39850747    9.36310766   1     112  C1_gga
   -3.39971793   -2.39079809   12.22513822   1     113  C1_gga
   -2.72838561   -3.43991239   11.50992307   1     114  C1_gga
   -2.72879862   -3.44947321   10.08071041   1     115  C1_gga
   -1.79300542   -4.27298289    9.36099607   1     116  C1_gga
   -1.78593318   -4.24583434   12.23355341   1     117  C1_gga
   -0.62840556   -4.70734101   11.51321999   1     118  C1_gga
   -0.63079551   -4.72771482   10.08297238   1     119  C1_gga
    0.61827707   -4.74467171    9.36049181   1     120  C1_gga
    0.61636099   -4.70981431   12.23631541   1     121  C1_gga
    1.78281719   -4.28161210   11.51188263   1     122  C1_gga
    1.78426317   -4.29590373   10.08185255   1     123  C1_gga
    2.73227471   -3.48828215    9.36164267   1     124  C1_gga
    2.73399216   -3.47596284   12.22932051   1     125  C1_gga
    3.40266927   -2.43164220   11.50853586   1     126  C1_gga
    3.39781101   -2.43619052   10.07997971   1     127  C1_gga
    3.78087909   -1.25421567    9.36361072   1     128  C1_gga
    3.79026151   -1.24925123   12.22355377   1     129  C1_gga
    3.90420112   -0.01427901   11.50716525   1     130  C1_gga
    3.90075370   -0.01775041   10.07971814   1     131  C1_gga
    3.77097464    1.21698041    9.36434924   1     132  C1_gga
    3.84267925    1.22225201   16.51754565   1     133  C1_gga
    3.42327130    2.39515264   15.80230533   1     134  C1_gga
    3.40209721    2.39753662   14.37217209   1     135  C1_gga
    2.72642880    3.44648301   13.65854622   1     136  C1_gga
    2.74714163    3.43221537   16.52647183   1     137  C1_gga
    1.78824250    4.23460927   15.81399427   1     138  C1_gga
    1.78381894    4.25253764   14.38427255   1     139  C1_gga
    0.62294872    4.71833246   13.66675733   1     140  C1_gga
    0.62318389    4.66408035   16.53802946   1     141  C1_gga
   -0.62343259    4.68447240   15.81914965   1     142  C1_gga
   -0.62537189    4.71412767   14.38939614   1     143  C1_gga
   -1.79536924    4.28896093   13.66458067   1     144  C1_gga
   -1.79133417    4.24264912   16.53549183   1     145  C1_gga
   -2.75251673    3.46192635   15.80978378   1     146  C1_gga
   -2.74620930    3.47657186   14.37944105   1     147  C1_gga
   -3.41910039    2.43643908   13.65534691   1     148  C1_gga
   -3.44948892    2.42558877   16.52251158   1     149  C1_gga
   -3.84616709    1.25284952   15.79972386   1     150  C1_gga
   -3.82121934    1.25692211   14.36960899   1     151  C1_gga
   -3.94199636    0.02307316   13.65080454   1     152  C1_gga
   -3.99670632    0.01813735   16.51649613   1     153  C1_gga
   -3.84752739   -1.21539193   15.79844180   1     154  C1_gga
   -3.82182811   -1.21310480   14.36837934   1     155  C1_gga
   -3.41350159   -2.38914058   13.65382393   1     156  C1_gga
   -3.45116799   -2.38954183   16.52088467   1     157  C1_gga
   -2.75455141   -3.42544458   15.80754703   1     158  C1_gga
   -2.74375816   -3.43133785   14.37733882   1     159  C1_gga
   -1.79053928   -4.23774771   13.66291898   1     160  C1_gga
   -1.79800794   -4.21492692   16.53141231   1     161  C1_gga
   -0.63205397   -4.66693076   15.81651592   1     162  C1_gga
   -0.63030826   -4.68382008   14.38748228   1     163  C1_gga
    0.61672288   -4.69994099   13.66591591   1     164  C1_gga
    0.61549332   -4.66499793   16.53549118   1     165  C1_gga
    1.78824757   -4.24987508   15.81339595   1     166  C1_gga
    1.78578194   -4.26306582   14.38392884   1     167  C1_gga
    2.73855717   -3.46870932   13.65876101   1     168  C1_gga
    2.75393122   -3.45620169   16.52672510   1     169  C1_gga
    3.43693621   -2.42242938   15.80301388   1     170  C1_gga
    3.42075969   -2.42523584   14.37288587   1     171  C1_gga
    3.80423219   -1.24687853   13.65200760   1     172  C1_gga
    3.85102685   -1.24775820   16.51830723   1     173  C1_gga
    3.96571655   -0.01248044   15.79847169   1     174  C1_gga
    3.93828360   -0.01225452   14.36856856   1     175  C1_gga
    3.79186921    1.22124122   13.65216500   1     176  C1_gga
    3.90801888    1.22623438   20.82234299   1     177  C1_gga
    3.47922818    2.39532331   20.10303237   1     178  C1_gga
    3.46555590    2.39468242   18.67136223   1     179  C1_gga
    2.75745835    3.42229325   17.95600168   1     180  C1_gga
    2.77060381    3.41829818   20.82292837   1     181  C1_gga
    1.79550059    4.19458128   20.10659468   1     182  C1_gga
    1.79250899    4.20150311   18.67960011   1     183  C1_gga
    0.62359389    4.63935943   17.96527410   1     184  C1_gga
    0.62472304    4.61882655   20.82420612   1     185  C1_gga
   -0.62225913    4.62508936   20.10900933   1     186  C1_gga
   -0.62181656    4.63570972   18.68372264   1     187  C1_gga
   -1.79354362    4.22236015   17.96327731   1     188  C1_gga
   -1.79713108    4.20774083   20.82434527   1     189  C1_gga
   -2.77729225    3.44021519   20.10614785   1     190  C1_gga
   -2.76946286    3.44327883   18.67686665   1     191  C1_gga
   -3.47040924    2.42113428   17.95308331   1     192  C1_gga
   -3.49710350    2.42268433   20.82334507   1     193  C1_gga
   -3.92417143    1.25370787   20.10254258   1     194  C1_gga
   -3.90518289    1.25252091   18.66938372   1     195  C1_gga
   -4.03102968    0.01660977   17.94854861   1     196  C1_gga
   -4.06881831    0.01704018   20.82254976   1     197  C1_gga
   -3.92160950   -1.21999235   20.10259972   1     198  C1_gga
   -3.90621804   -1.21979701   18.66925445   1     199  C1_gga
   -3.47217220   -2.38833972   17.95199757   1     200  C1_gga
   -3.49073699   -2.38824840   20.82261526   1     201  C1_gga
   -2.77744835   -3.40990716   20.10445786   1     202  C1_gga
   -2.77240643   -3.41331679   18.67457171   1     203  C1_gga
   -1.80155487   -4.19889387   17.95985945   1     204  C1_gga
   -1.80296407   -4.18595259   20.82190840   1     205  C1_gga
   -0.63262185   -4.61492820   20.10540100   1     206  C1_gga
   -0.63217902   -4.62392554   18.67988347   1     207  C1_gga
    0.61496964   -4.64271341   17.96286535   1     208  C1_gga
    0.61431721   -4.62275891   20.82154515   1     209  C1_gga
    1.78941270   -4.20868341   20.10520198   1     210  C1_gga
    1.78846273   -4.21693837   18.67827817   1     211  C1_gga
    2.76231451   -3.44649724   17.95631974   1     212  C1_gga
    2.76787653   -3.43716216   20.82243116   1     213  C1_gga
    3.48125584   -2.41751285   20.10331034   1     214  C1_gga
    3.47191092   -2.41978963   18.67146265   1     215  C1_gga
    3.87901123   -1.24738633   17.94968635   1     216  C1_gga
    3.90735584   -1.24711737   20.82269619   1     217  C1_gga
    4.04771799   -0.01094582   20.10174260   1     218  C1_gga
    4.02927006   -0.01199687   18.66796070   1     219  C1_gga
    3.87363454    1.22265250   17.94912575   1     220  C1_gga
%endblock AtomicCoordinatesAndAtomicSpecies


PAO.BasisType      split
PAO.BasisSize      DZP
WriteCoorXmol      .true.
WriteMDXmol        .true. 
MD.UseSaveXV       .true.
WarningMinimumAtomicDistance  0.7 Ang
WriteKpoints       .true.
XC.functional      GGA
XC.authors         PBE
SpinPolarized      .false.
NonCollinearSpin   .false.
MaxSCFIterations   100
SCFMustConverge    .false.
DM.MixingWeight    0.15
DM.NumberPulay     5
DM.UseSaveDM       .true.
DM.InitSpinAF      .false.


WriteDM            .true.
WriteDM.NetCDF     .false.
WriteDMHS.NetCDF   .true.
DM.Tolerance       0.0001
MeshCutoff         200 Ry
NeglNonOverlapInt  .false.
SaveHS             .true.
SolutionMethod     diagon

MD.TypeOfRun        CG
MD.MaxForceTol      0.01 eV/Ang
MD.MaxStressTol     0.1 GPa
MD.NumCGsteps       800
MD.TargetPressure   0.0 GPa
MD.VariableCell	    true
Diag.DivideAndConquer    .true.
%block GeometryConstraints
stress 1 2 4 5 6
%endblock GeometryConstraints
%block MD.TargetStress
-1.0 -1.0 -1.0 0.0 0.0 0.0
%endblock MD.TargetStress


BandLinesScale     ReciprocalLatticeVectors
%block BandLines
1  0.000 0.000 0.000
100 0.000 0.000 0.500
%endblock BandLines

%block ProjectedDensityOfStates
-10.00 5.00 0.08 200 eV
%endblock ProjectedDensityOfStates

WriteMullikenPop    1





 








   
 




 



